p cnf 90 771
1 2 3 0
4 5 6 0
7 8 9 0
10 11 12 0
13 14 15 0
16 17 18 0
19 20 21 0
22 23 24 0
25 26 27 0
28 29 30 0
31 32 33 0
34 35 36 0
37 38 39 0
40 41 42 0
43 44 45 0
46 47 48 0
49 50 51 0
52 53 54 0
55 56 57 0
58 59 60 0
61 62 63 0
64 65 66 0
67 68 69 0
70 71 72 0
73 74 75 0
76 77 78 0
79 80 81 0
82 83 84 0
85 86 87 0
88 89 90 0
-1 -2 0
-1 -3 0
-2 -3 0
-4 -5 0
-4 -6 0
-5 -6 0
-7 -8 0
-7 -9 0
-8 -9 0
-10 -11 0
-10 -12 0
-11 -12 0
-13 -14 0
-13 -15 0
-14 -15 0
-16 -17 0
-16 -18 0
-17 -18 0
-19 -20 0
-19 -21 0
-20 -21 0
-22 -23 0
-22 -24 0
-23 -24 0
-25 -26 0
-25 -27 0
-26 -27 0
-28 -29 0
-28 -30 0
-29 -30 0
-31 -32 0
-31 -33 0
-32 -33 0
-34 -35 0
-34 -36 0
-35 -36 0
-37 -38 0
-37 -39 0
-38 -39 0
-40 -41 0
-40 -42 0
-41 -42 0
-43 -44 0
-43 -45 0
-44 -45 0
-46 -47 0
-46 -48 0
-47 -48 0
-49 -50 0
-49 -51 0
-50 -51 0
-52 -53 0
-52 -54 0
-53 -54 0
-55 -56 0
-55 -57 0
-56 -57 0
-58 -59 0
-58 -60 0
-59 -60 0
-61 -62 0
-61 -63 0
-62 -63 0
-64 -65 0
-64 -66 0
-65 -66 0
-67 -68 0
-67 -69 0
-68 -69 0
-70 -71 0
-70 -72 0
-71 -72 0
-73 -74 0
-73 -75 0
-74 -75 0
-76 -77 0
-76 -78 0
-77 -78 0
-79 -80 0
-79 -81 0
-80 -81 0
-82 -83 0
-82 -84 0
-83 -84 0
-85 -86 0
-85 -87 0
-86 -87 0
-88 -89 0
-88 -90 0
-89 -90 0
-1 -4 0
-2 -5 0
-3 -6 0
-1 -10 0
-2 -11 0
-3 -12 0
-1 -16 0
-2 -17 0
-3 -18 0
-1 -19 0
-2 -20 0
-3 -21 0
-1 -34 0
-2 -35 0
-3 -36 0
-1 -40 0
-2 -41 0
-3 -42 0
-1 -46 0
-2 -47 0
-3 -48 0
-1 -67 0
-2 -68 0
-3 -69 0
-1 -76 0
-2 -77 0
-3 -78 0
-1 -79 0
-2 -80 0
-3 -81 0
-4 -10 0
-5 -11 0
-6 -12 0
-4 -13 0
-5 -14 0
-6 -15 0
-4 -19 0
-5 -20 0
-6 -21 0
-4 -22 0
-5 -23 0
-6 -24 0
-4 -25 0
-5 -26 0
-6 -27 0
-4 -34 0
-5 -35 0
-6 -36 0
-4 -40 0
-5 -41 0
-6 -42 0
-4 -49 0
-5 -50 0
-6 -51 0
-4 -52 0
-5 -53 0
-6 -54 0
-4 -67 0
-5 -68 0
-6 -69 0
-4 -73 0
-5 -74 0
-6 -75 0
-4 -85 0
-5 -86 0
-6 -87 0
-7 -10 0
-8 -11 0
-9 -12 0
-7 -13 0
-8 -14 0
-9 -15 0
-7 -19 0
-8 -20 0
-9 -21 0
-7 -28 0
-8 -29 0
-9 -30 0
-7 -31 0
-8 -32 0
-9 -33 0
-7 -34 0
-8 -35 0
-9 -36 0
-7 -40 0
-8 -41 0
-9 -42 0
-7 -43 0
-8 -44 0
-9 -45 0
-7 -46 0
-8 -47 0
-9 -48 0
-7 -49 0
-8 -50 0
-9 -51 0
-7 -52 0
-8 -53 0
-9 -54 0
-7 -58 0
-8 -59 0
-9 -60 0
-7 -67 0
-8 -68 0
-9 -69 0
-7 -73 0
-8 -74 0
-9 -75 0
-7 -79 0
-8 -80 0
-9 -81 0
-7 -88 0
-8 -89 0
-9 -90 0
-10 -13 0
-11 -14 0
-12 -15 0
-10 -16 0
-11 -17 0
-12 -18 0
-10 -25 0
-11 -26 0
-12 -27 0
-10 -28 0
-11 -29 0
-12 -30 0
-10 -43 0
-11 -44 0
-12 -45 0
-10 -46 0
-11 -47 0
-12 -48 0
-10 -52 0
-11 -53 0
-12 -54 0
-10 -55 0
-11 -56 0
-12 -57 0
-10 -58 0
-11 -59 0
-12 -60 0
-10 -64 0
-11 -65 0
-12 -66 0
-10 -67 0
-11 -68 0
-12 -69 0
-10 -70 0
-11 -71 0
-12 -72 0
-10 -76 0
-11 -77 0
-12 -78 0
-10 -79 0
-11 -80 0
-12 -81 0
-10 -85 0
-11 -86 0
-12 -87 0
-10 -88 0
-11 -89 0
-12 -90 0
-13 -16 0
-14 -17 0
-15 -18 0
-13 -28 0
-14 -29 0
-15 -30 0
-13 -31 0
-14 -32 0
-15 -33 0
-13 -49 0
-14 -50 0
-15 -51 0
-13 -52 0
-14 -53 0
-15 -54 0
-13 -55 0
-14 -56 0
-15 -57 0
-13 -61 0
-14 -62 0
-15 -63 0
-13 -64 0
-14 -65 0
-15 -66 0
-13 -70 0
-14 -71 0
-15 -72 0
-13 -73 0
-14 -74 0
-15 -75 0
-13 -76 0
-14 -77 0
-15 -78 0
-13 -79 0
-14 -80 0
-15 -81 0
-13 -82 0
-14 -83 0
-15 -84 0
-16 -22 0
-17 -23 0
-18 -24 0
-16 -25 0
-17 -26 0
-18 -27 0
-16 -28 0
-17 -29 0
-18 -30 0
-16 -31 0
-17 -32 0
-18 -33 0
-16 -34 0
-17 -35 0
-18 -36 0
-16 -43 0
-17 -44 0
-18 -45 0
-16 -52 0
-17 -53 0
-18 -54 0
-16 -55 0
-17 -56 0
-18 -57 0
-16 -58 0
-17 -59 0
-18 -60 0
-16 -70 0
-17 -71 0
-18 -72 0
-16 -73 0
-17 -74 0
-18 -75 0
-16 -79 0
-17 -80 0
-18 -81 0
-16 -82 0
-17 -83 0
-18 -84 0
-16 -88 0
-17 -89 0
-18 -90 0
-19 -25 0
-20 -26 0
-21 -27 0
-19 -34 0
-20 -35 0
-21 -36 0
-19 -37 0
-20 -38 0
-21 -39 0
-19 -49 0
-20 -50 0
-21 -51 0
-19 -58 0
-20 -59 0
-21 -60 0
-19 -64 0
-20 -65 0
-21 -66 0
-19 -67 0
-20 -68 0
-21 -69 0
-19 -73 0
-20 -74 0
-21 -75 0
-19 -76 0
-20 -77 0
-21 -78 0
-19 -79 0
-20 -80 0
-21 -81 0
-19 -88 0
-20 -89 0
-21 -90 0
-22 -25 0
-23 -26 0
-24 -27 0
-22 -28 0
-23 -29 0
-24 -30 0
-22 -37 0
-23 -38 0
-24 -39 0
-22 -40 0
-23 -41 0
-24 -42 0
-22 -43 0
-23 -44 0
-24 -45 0
-22 -49 0
-23 -50 0
-24 -51 0
-22 -55 0
-23 -56 0
-24 -57 0
-22 -58 0
-23 -59 0
-24 -60 0
-22 -64 0
-23 -65 0
-24 -66 0
-22 -73 0
-23 -74 0
-24 -75 0
-22 -85 0
-23 -86 0
-24 -87 0
-25 -28 0
-26 -29 0
-27 -30 0
-25 -31 0
-26 -32 0
-27 -33 0
-25 -34 0
-26 -35 0
-27 -36 0
-25 -49 0
-26 -50 0
-27 -51 0
-25 -61 0
-26 -62 0
-27 -63 0
-25 -64 0
-26 -65 0
-27 -66 0
-25 -67 0
-26 -68 0
-27 -69 0
-25 -73 0
-26 -74 0
-27 -75 0
-25 -79 0
-26 -80 0
-27 -81 0
-25 -82 0
-26 -83 0
-27 -84 0
-28 -31 0
-29 -32 0
-30 -33 0
-28 -37 0
-29 -38 0
-30 -39 0
-28 -40 0
-29 -41 0
-30 -42 0
-28 -43 0
-29 -44 0
-30 -45 0
-28 -46 0
-29 -47 0
-30 -48 0
-28 -55 0
-29 -56 0
-30 -57 0
-28 -64 0
-29 -65 0
-30 -66 0
-28 -67 0
-29 -68 0
-30 -69 0
-28 -70 0
-29 -71 0
-30 -72 0
-28 -73 0
-29 -74 0
-30 -75 0
-31 -55 0
-32 -56 0
-33 -57 0
-31 -58 0
-32 -59 0
-33 -60 0
-31 -61 0
-32 -62 0
-33 -63 0
-31 -70 0
-32 -71 0
-33 -72 0
-31 -76 0
-32 -77 0
-33 -78 0
-31 -85 0
-32 -86 0
-33 -87 0
-34 -37 0
-35 -38 0
-36 -39 0
-34 -43 0
-35 -44 0
-36 -45 0
-34 -49 0
-35 -50 0
-36 -51 0
-34 -52 0
-35 -53 0
-36 -54 0
-34 -58 0
-35 -59 0
-36 -60 0
-34 -70 0
-35 -71 0
-36 -72 0
-34 -85 0
-35 -86 0
-36 -87 0
-34 -88 0
-35 -89 0
-36 -90 0
-37 -40 0
-38 -41 0
-39 -42 0
-37 -52 0
-38 -53 0
-39 -54 0
-37 -58 0
-38 -59 0
-39 -60 0
-37 -61 0
-38 -62 0
-39 -63 0
-37 -70 0
-38 -71 0
-39 -72 0
-37 -73 0
-38 -74 0
-39 -75 0
-37 -79 0
-38 -80 0
-39 -81 0
-40 -43 0
-41 -44 0
-42 -45 0
-40 -46 0
-41 -47 0
-42 -48 0
-40 -52 0
-41 -53 0
-42 -54 0
-40 -55 0
-41 -56 0
-42 -57 0
-40 -61 0
-41 -62 0
-42 -63 0
-40 -64 0
-41 -65 0
-42 -66 0
-40 -67 0
-41 -68 0
-42 -69 0
-40 -76 0
-41 -77 0
-42 -78 0
-40 -82 0
-41 -83 0
-42 -84 0
-40 -88 0
-41 -89 0
-42 -90 0
-43 -46 0
-44 -47 0
-45 -48 0
-43 -52 0
-44 -53 0
-45 -54 0
-43 -58 0
-44 -59 0
-45 -60 0
-43 -61 0
-44 -62 0
-45 -63 0
-43 -67 0
-44 -68 0
-45 -69 0
-43 -70 0
-44 -71 0
-45 -72 0
-43 -73 0
-44 -74 0
-45 -75 0
-43 -76 0
-44 -77 0
-45 -78 0
-43 -82 0
-44 -83 0
-45 -84 0
-43 -85 0
-44 -86 0
-45 -87 0
-43 -88 0
-44 -89 0
-45 -90 0
-46 -49 0
-47 -50 0
-48 -51 0
-46 -55 0
-47 -56 0
-48 -57 0
-46 -58 0
-47 -59 0
-48 -60 0
-46 -64 0
-47 -65 0
-48 -66 0
-46 -70 0
-47 -71 0
-48 -72 0
-46 -76 0
-47 -77 0
-48 -78 0
-46 -79 0
-47 -80 0
-48 -81 0
-46 -82 0
-47 -83 0
-48 -84 0
-46 -85 0
-47 -86 0
-48 -87 0
-49 -55 0
-50 -56 0
-51 -57 0
-49 -61 0
-50 -62 0
-51 -63 0
-49 -64 0
-50 -65 0
-51 -66 0
-49 -67 0
-50 -68 0
-51 -69 0
-49 -76 0
-50 -77 0
-51 -78 0
-49 -79 0
-50 -80 0
-51 -81 0
-49 -82 0
-50 -83 0
-51 -84 0
-49 -88 0
-50 -89 0
-51 -90 0
-52 -58 0
-53 -59 0
-54 -60 0
-52 -61 0
-53 -62 0
-54 -63 0
-52 -64 0
-53 -65 0
-54 -66 0
-52 -73 0
-53 -74 0
-54 -75 0
-52 -82 0
-53 -83 0
-54 -84 0
-52 -88 0
-53 -89 0
-54 -90 0
-55 -64 0
-56 -65 0
-57 -66 0
-55 -79 0
-56 -80 0
-57 -81 0
-55 -88 0
-56 -89 0
-57 -90 0
-58 -61 0
-59 -62 0
-60 -63 0
-58 -73 0
-59 -74 0
-60 -75 0
-58 -88 0
-59 -89 0
-60 -90 0
-61 -70 0
-62 -71 0
-63 -72 0
-61 -82 0
-62 -83 0
-63 -84 0
-61 -85 0
-62 -86 0
-63 -87 0
-64 -67 0
-65 -68 0
-66 -69 0
-64 -82 0
-65 -83 0
-66 -84 0
-64 -88 0
-65 -89 0
-66 -90 0
-67 -70 0
-68 -71 0
-69 -72 0
-67 -73 0
-68 -74 0
-69 -75 0
-67 -76 0
-68 -77 0
-69 -78 0
-67 -79 0
-68 -80 0
-69 -81 0
-67 -82 0
-68 -83 0
-69 -84 0
-67 -85 0
-68 -86 0
-69 -87 0
-70 -73 0
-71 -74 0
-72 -75 0
-70 -76 0
-71 -77 0
-72 -78 0
-70 -85 0
-71 -86 0
-72 -87 0
-73 -82 0
-74 -83 0
-75 -84 0
-73 -88 0
-74 -89 0
-75 -90 0
-76 -82 0
-77 -83 0
-78 -84 0
-76 -85 0
-77 -86 0
-78 -87 0
-79 -85 0
-80 -86 0
-81 -87 0
-79 -88 0
-80 -89 0
-81 -90 0
-82 -85 0
-83 -86 0
-84 -87 0
-82 -88 0
-83 -89 0
-84 -90 0
